Route #1: 100 61 23
Route #2: 86 9 92
Route #3: 50 91 52
Route #4: 18 10 39
Route #5: 31 46 35
Route #6: 59 60 82
Route #7: 93 75
Route #8: 17 8
Route #9: 25 65 78 42 28
Route #10: 27 97 19
Route #11: 63 77 3
Route #12: 34 64 96 48 26 47 38
Route #13: 68 90 84 66
Route #14: 71 62 99 98 89
Route #15: 40 67 88 44
Route #16: 20 41 22 15
Route #17: 58 12 5
Route #18: 87 37 6 49 14
Route #19: 32 33 53 73 95 24
Route #20: 4 13 74
Route #21: 83 51 81
Route #22: 30 85 11 79
Route #23: 54 70 1
Route #24: 21 56 94 80
Route #25: 69 16 55 76
Route #26: 7 2 45 43 29 36 72 57
Cost 27591.0000
Time 16.0004